(set-logic ALL)
(declare-const x Int)
(assert (= (mod x 5) 1))
(assert (= (mod (- x (+ 1 (ite (and (< 5 0) (not (= (mod (- x 1) 5) 0))) (- (div (- x 1) 5) 1) (div (- x 1) 5)))) 5) 1))
(assert (= (mod (- (- x (+ 1 (ite (and (< 5 0) (not (= (mod (- x 1) 5) 0))) (- (div (- x 1) 5) 1) (div (- x 1) 5)))) (+ 1 (ite (and (< 5 0) (not (= (mod (- (- x (+ 1 (ite (and (< 5 0) (not (= (mod (- x 1) 5) 0))) (- (div (- x 1) 5) 1) (div (- x 1) 5)))) 1) 5) 0))) (- (div (- (- x (+ 1 (ite (and (< 5 0) (not (= (mod (- x 1) 5) 0))) (- (div (- x 1) 5) 1) (div (- x 1) 5)))) 1) 5) 1) (div (- (- x (+ 1 (ite (and (< 5 0) (not (= (mod (- x 1) 5) 0))) (- (div (- x 1) 5) 1) (div (- x 1) 5)))) 1) 5)))) 5) 1))
(assert (= (mod (- (- (- x (+ 1 (ite (and (< 5 0) (not (= (mod (- x 1) 5) 0))) (- (div (- x 1) 5) 1) (div (- x 1) 5)))) (+ 1 (ite (and (< 5 0) (not (= (mod (- (- x (+ 1 (ite (and (< 5 0) (not (= (mod (- x 1) 5) 0))) (- (div (- x 1) 5) 1) (div (- x 1) 5)))) 1) 5) 0))) (- (div (- (- x (+ 1 (ite (and (< 5 0) (not (= (mod (- x 1) 5) 0))) (- (div (- x 1) 5) 1) (div (- x 1) 5)))) 1) 5) 1) (div (- (- x (+ 1 (ite (and (< 5 0) (not (= (mod (- x 1) 5) 0))) (- (div (- x 1) 5) 1) (div (- x 1) 5)))) 1) 5)))) (+ 1 (ite (and (< 5 0) (not (= (mod (- (- (- x (+ 1 (ite (and (< 5 0) (not (= (mod (- x 1) 5) 0))) (- (div (- x 1) 5) 1) (div (- x 1) 5)))) (+ 1 (ite (and (< 5 0) (not (= (mod (- (- x (+ 1 (ite (and (< 5 0) (not (= (mod (- x 1) 5) 0))) (- (div (- x 1) 5) 1) (div (- x 1) 5)))) 1) 5) 0))) (- (div (- (- x (+ 1 (ite (and (< 5 0) (not (= (mod (- x 1) 5) 0))) (- (div (- x 1) 5) 1) (div (- x 1) 5)))) 1) 5) 1) (div (- (- x (+ 1 (ite (and (< 5 0) (not (= (mod (- x 1) 5) 0))) (- (div (- x 1) 5) 1) (div (...
(assert (= (mod (- (- (- (- x (+ 1 (ite (and (< 5 0) (not (= (mod (- x 1) 5) 0))) (- (div (- x 1) 5) 1) (div (- x 1) 5)))) (+ 1 (ite (and (< 5 0) (not (= (mod (- (- x (+ 1 (ite (and (< 5 0) (not (= (mod (- x 1) 5) 0))) (- (div (- x 1) 5) 1) (div (- x 1) 5)))) 1) 5) 0))) (- (div (- (- x (+ 1 (ite (and (< 5 0) (not (= (mod (- x 1) 5) 0))) (- (div (- x 1) 5) 1) (div (- x 1) 5)))) 1) 5) 1) (div (- (- x (+ 1 (ite (and (< 5 0) (not (= (mod (- x 1) 5) 0))) (- (div (- x 1) 5) 1) (div (- x 1) 5)))) 1) 5)))) (+ 1 (ite (and (< 5 0) (not (= (mod (- (- (- x (+ 1 (ite (and (< 5 0) (not (= (mod (- x 1) 5) 0))) (- (div (- x 1) 5) 1) (div (- x 1) 5)))) (+ 1 (ite (and (< 5 0) (not (= (mod (- (- x (+ 1 (ite (and (< 5 0) (not (= (mod (- x 1) 5) 0))) (- (div (- x 1) 5) 1) (div (- x 1) 5)))) 1) 5) 0))) (- (div (- (- x (+ 1 (ite (and (< 5 0) (not (= (mod (- x 1) 5) 0))) (- (div (- x 1) 5) 1) (div (- x 1) 5)))) 1) 5) 1) (div (- (- x (+ 1 (ite (and (< 5 0) (not (= (mod (- x 1) 5) 0))) (- (div (- x 1) 5) 1) (di...
(assert (and (> (- (- (- (- (- x (+ 1 (ite (and (< 5 0) (not (= (mod (- x 1) 5) 0))) (- (div (- x 1) 5) 1) (div (- x 1) 5)))) (+ 1 (ite (and (< 5 0) (not (= (mod (- (- x (+ 1 (ite (and (< 5 0) (not (= (mod (- x 1) 5) 0))) (- (div (- x 1) 5) 1) (div (- x 1) 5)))) 1) 5) 0))) (- (div (- (- x (+ 1 (ite (and (< 5 0) (not (= (mod (- x 1) 5) 0))) (- (div (- x 1) 5) 1) (div (- x 1) 5)))) 1) 5) 1) (div (- (- x (+ 1 (ite (and (< 5 0) (not (= (mod (- x 1) 5) 0))) (- (div (- x 1) 5) 1) (div (- x 1) 5)))) 1) 5)))) (+ 1 (ite (and (< 5 0) (not (= (mod (- (- (- x (+ 1 (ite (and (< 5 0) (not (= (mod (- x 1) 5) 0))) (- (div (- x 1) 5) 1) (div (- x 1) 5)))) (+ 1 (ite (and (< 5 0) (not (= (mod (- (- x (+ 1 (ite (and (< 5 0) (not (= (mod (- x 1) 5) 0))) (- (div (- x 1) 5) 1) (div (- x 1) 5)))) 1) 5) 0))) (- (div (- (- x (+ 1 (ite (and (< 5 0) (not (= (mod (- x 1) 5) 0))) (- (div (- x 1) 5) 1) (div (- x 1) 5)))) 1) 5) 1) (div (- (- x (+ 1 (ite (and (< 5 0) (not (= (mod (- x 1) 5) 0))) (- (div (- x 1) 5) 1) ...
(check-sat)
(get-model)